50
8434

122 439
370 773
85 116
200 799
559 85
552 255
46 323
285 560
931 521
696 748
551 537
640 731
554 247
623 437
562 515
187 932
191 711
462 876
601 550
102 745
543 13
28 609
798 175
278 577
767 14
482 549
178 378
937 857
607 68
36 965
144 980
977 791
865 2
118 526
172 385
653 224
97 804
2 233
462 361
367 85
964 681
686 235
485 615
738 764
345 775
870 833
718 237
870 83
125 46
565 586
